NAME : pr10 V1
COMMENT : 10-city problem (by ChatGPT)
TYPE : TSP
DIMENSION : 10
EDGE_WEIGHT_TYPE : EUC_2D
NODE_COORD_SECTION
1 0 1
2 0.5878 0.8090
3 0.9511 0.3090
4 0.9511 -0.3090
5 0.5878 -0.8090
6 -0.0000 -1.0000
7 -0.5878 -0.8090
8 -0.9511 -0.3090
9 -0.9511 0.3090
10 -0.5878 0.8090
